\ENCODING=ISO-8859-1
\Problem name: IloCplex

Maximize
 obj1: z#51
Subject To
 c1:  q_0#0 <= 2
 c2:  q_1#1 <= 6
 c3:  q_2#2 <= 3
 c4:  x_02#3 + x_01#4 >= 1
 c5:  - 300 hap_1_00#5 + ap_00#6 <= 0
 c6:  x_02#3 + x_01#4 + 2 hap_1_00#5 <= 3
 c7:  - x_01#4 - x_00#7 >= -1
 c8:  - 300 han_2_00#8 + an_00#9 <= 0
 c9:  - x_01#4 - x_00#7 + 2 han_2_00#8 <= 1
 c10: x_02#10 + x_01#11 >= 1
 c11: - 300 hap_1_10#12 + ap_10#13 <= 0
 c12: x_02#10 + x_01#11 + 2 hap_1_10#12 <= 3
 c13: - x_01#11 - x_00#14 >= -1
 c14: - 300 han_2_10#15 + an_10#16 <= 0
 c15: - x_01#11 - x_00#14 + 2 han_2_10#15 <= 1
 c16: x_02#17 + x_01#18 >= 1
 c17: - 300 hap_1_20#19 + ap_20#20 <= 0
 c18: x_02#17 + x_01#18 + 2 hap_1_20#19 <= 3
 c19: - x_01#18 - x_00#21 >= -1
 c20: - 300 han_2_20#22 + an_20#23 <= 0
 c21: - x_01#18 - x_00#21 + 2 han_2_20#22 <= 1
 c22: x_02#24 + x_01#25 >= 1
 c23: - 300 hap_1_30#26 + ap_30#27 <= 0
 c24: x_02#24 + x_01#25 + 2 hap_1_30#26 <= 3
 c25: - x_01#25 - x_00#28 >= -1
 c26: - 300 han_2_30#29 + an_30#30 <= 0
 c27: - x_01#25 - x_00#28 + 2 han_2_30#29 <= 1
 c28: - x_02#3 + x_00#7 >= 0
 c29: - 300 hb_001#31 + b_001#32 <= 0
 c30: - x_02#3 + x_00#7 + 2 hb_001#31 <= 2
 c31: - x_02#10 + x_00#14 >= 0
 c32: - 300 hb_101#33 + b_101#34 <= 0
 c33: - x_02#10 + x_00#14 + 2 hb_101#33 <= 2
 c34: - x_02#17 + x_00#21 >= 0
 c35: - 300 hb_201#35 + b_201#36 <= 0
 c36: - x_02#17 + x_00#21 + 2 hb_201#35 <= 2
 c37: - x_02#24 + x_00#28 >= 0
 c38: - 300 hb_301#37 + b_301#38 <= 0
 c39: - x_02#24 + x_00#28 + 2 hb_301#37 <= 2
 c40: - q_0#0 - an_00#9 + b_001#32 <= 0.0750000000000113
 c41: x_00#7 - 2 hdu_000#39 <= 0
 c42: q_0#0 + an_00#9 - b_001#32 + 300 hdu_000#39 <= 299.925
 c43: - q_1#1 + ap_00#6 - an_00#9 <= 0
 c44: x_01#4 - 2 hdu_001#40 <= 0
 c45: q_1#1 - ap_00#6 + an_00#9 + 300 hdu_001#40 <= 300
 c46: - q_2#2 + ap_00#6 - b_001#32 <= 0
 c47: x_02#3 - 2 hdu_002#41 <= 0
 c48: q_2#2 - ap_00#6 + b_001#32 + 300 hdu_002#41 <= 300
 c49: - q_0#0 - an_10#16 + b_101#34 <= 0
 c50: x_00#14 - 2 hdu_100#42 <= 0
 c51: q_0#0 + an_10#16 - b_101#34 + 300 hdu_100#42 <= 300
 c52: - q_1#1 + ap_10#13 - an_10#16 <= 0.85
 c53: x_01#11 - 2 hdu_101#43 <= 0
 c54: q_1#1 - ap_10#13 + an_10#16 + 300 hdu_101#43 <= 299.15
 c55: - q_2#2 + ap_10#13 - b_101#34 <= 0
 c56: x_02#10 - 2 hdu_102#44 <= 0
 c57: q_2#2 - ap_10#13 + b_101#34 + 300 hdu_102#44 <= 300
 c58: - q_0#0 - an_20#23 + b_201#36 <= 1
 c59: x_00#21 - 2 hdu_200#45 <= 0
 c60: q_0#0 + an_20#23 - b_201#36 + 300 hdu_200#45 <= 299
 c61: - q_1#1 + ap_20#20 - an_20#23 <= 0
 c62: x_01#18 - 2 hdu_201#46 <= 0
 c63: q_1#1 - ap_20#20 + an_20#23 + 300 hdu_201#46 <= 300
 c64: - q_2#2 + ap_20#20 - b_201#36 <= 4
 c65: x_02#17 - 2 hdu_202#47 <= 0
 c66: q_2#2 - ap_20#20 + b_201#36 + 300 hdu_202#47 <= 296
 c67: - q_0#0 - an_30#30 + b_301#38 <= 1
 c68: x_00#28 - 2 hdu_300#48 <= 0
 c69: q_0#0 + an_30#30 - b_301#38 + 300 hdu_300#48 <= 299
 c70: - q_1#1 + ap_30#27 - an_30#30 <= 0
 c71: x_01#25 - 2 hdu_301#49 <= 0
 c72: q_1#1 - ap_30#27 + an_30#30 + 300 hdu_301#49 <= 300
 c73: - q_2#2 + ap_30#27 - b_301#38 <= 4
 c74: x_02#24 - 2 hdu_302#50 <= 0
 c75: q_2#2 - ap_30#27 + b_301#38 + 300 hdu_302#50 <= 296
 c76: x_02#3 + x_01#4 - ap_00#6 + 1.07500000000001 x_00#7 + an_00#9 + z#51 <= 0
 c77: x_02#10 + 1.85 x_01#11 - ap_10#13 + x_00#14 + an_10#16 + z#51 <= 0
 c78: 5 x_02#17 + x_01#18 - ap_20#20 + 2 x_00#21 + an_20#23 + z#51 <= 0
 c79: 5 x_02#24 + x_01#25 - ap_30#27 + 2 x_00#28 + an_30#30 + z#51 <= 0
Bounds
 0 <= x_02#3 <= 1
 0 <= x_01#4 <= 1
 0 <= hap_1_00#5 <= 1
 0 <= x_00#7 <= 1
 0 <= han_2_00#8 <= 1
 0 <= x_02#10 <= 1
 0 <= x_01#11 <= 1
 0 <= hap_1_10#12 <= 1
 0 <= x_00#14 <= 1
 0 <= han_2_10#15 <= 1
 0 <= x_02#17 <= 1
 0 <= x_01#18 <= 1
 0 <= hap_1_20#19 <= 1
 0 <= x_00#21 <= 1
 0 <= han_2_20#22 <= 1
 0 <= x_02#24 <= 1
 0 <= x_01#25 <= 1
 0 <= hap_1_30#26 <= 1
 0 <= x_00#28 <= 1
 0 <= han_2_30#29 <= 1
 0 <= hb_001#31 <= 1
 0 <= hb_101#33 <= 1
 0 <= hb_201#35 <= 1
 0 <= hb_301#37 <= 1
 0 <= hdu_000#39 <= 1
 0 <= hdu_001#40 <= 1
 0 <= hdu_002#41 <= 1
 0 <= hdu_100#42 <= 1
 0 <= hdu_101#43 <= 1
 0 <= hdu_102#44 <= 1
 0 <= hdu_200#45 <= 1
 0 <= hdu_201#46 <= 1
 0 <= hdu_202#47 <= 1
 0 <= hdu_300#48 <= 1
 0 <= hdu_301#49 <= 1
 0 <= hdu_302#50 <= 1
      z#51 Free
Binaries
 hap_1_00#5  han_2_00#8  hap_1_10#12  han_2_10#15  hap_1_20#19  han_2_20#22 
 hap_1_30#26  han_2_30#29  hb_001#31  hb_101#33  hb_201#35  hb_301#37 
 hdu_000#39  hdu_001#40  hdu_002#41  hdu_100#42  hdu_101#43  hdu_102#44 
 hdu_200#45  hdu_201#46  hdu_202#47  hdu_300#48  hdu_301#49  hdu_302#50 
End
